FILENAME:   /home/mcs001/s132664/testsets/IP/miplib2017/seqsolve1.mps.gz
SETTINGS:   settings_final_nosym_norestarts
TIMELIMIT:  7200
OUTPUTNAME: final_miplib_symretope_if_extended_generating_set_cpx_v802__settings_final_nosym_norestarts__0__
BINNAME:    bin/sbcs.linux.x86_64.gnu.opt.cpx
BASENAME:   seqsolve1.mps.gz
SEED:       0
@01 /home/mcs001/s132664/testsets/IP/miplib2017/seqsolve1.mps.gz ===========
@02 seqsolve1.mps.gz
@03 1686649260
SCIP version 8.0.2 [precision: 8 byte] [memory: block] [mode: optimized] [LP solver: CPLEX 20.1.0.0] [GitHash: 5f0473c]
Copyright (C) 2002-2022 Konrad-Zuse-Zentrum fuer Informationstechnik Berlin (ZIB)

Symretope propagation methods - (c) Jasper van Doornmalen, Christopher Hojny.
[GitHash: 2fd0484]

reading parameter file <../settings/settings_final_nosym_norestarts.set> ...

Changed settings:
limits/time = 7200
limits/restarts = 0
misc/usesymmetry = 0
constraints/orbisack/sepafreq = -1
constraints/symresack/sepafreq = -1
propagating/symmetry/detectsubgroups = FALSE
propagating/symmetry/usesymretopes = FALSE
propagating/symmetry/relabelsymretopes = 0
propagating/symmetry/ofsymcomptiming = 0
constraints/symretope/sepafreq = -1
constraints/symretope/peek = FALSE


solving problem ...

original problem has 207665 variables (123834 bin, 82835 int, 0 impl, 996 cont) and 242243 constraints
presolving:
(round 1, fast)       26569 del vars, 23502 del conss, 0 add conss, 21296 chg bounds, 0 chg sides, 345 chg coeffs, 0 upgd conss, 6264 impls, 56 clqs
(round 2, fast)       38624 del vars, 43026 del conss, 0 add conss, 28555 chg bounds, 0 chg sides, 345 chg coeffs, 0 upgd conss, 6264 impls, 56 clqs
(round 3, exhaustive) 38738 del vars, 54526 del conss, 0 add conss, 28929 chg bounds, 0 chg sides, 345 chg coeffs, 0 upgd conss, 6264 impls, 56 clqs
(round 4, fast)       58079 del vars, 65907 del conss, 0 add conss, 29811 chg bounds, 23 chg sides, 350 chg coeffs, 0 upgd conss, 6475 impls, 6061 clqs
(round 5, fast)       60513 del vars, 70193 del conss, 0 add conss, 31952 chg bounds, 31 chg sides, 350 chg coeffs, 0 upgd conss, 6475 impls, 7386 clqs
(round 6, exhaustive) 60514 del vars, 70241 del conss, 0 add conss, 32025 chg bounds, 31 chg sides, 350 chg coeffs, 153573 upgd conss, 6475 impls, 7386 clqs
(round 7, medium)     63181 del vars, 72927 del conss, 52 add conss, 32025 chg bounds, 37 chg sides, 461 chg coeffs, 153573 upgd conss, 144257 impls, 7455 clqs
(round 8, fast)       74034 del vars, 75594 del conss, 52 add conss, 42878 chg bounds, 37 chg sides, 461 chg coeffs, 153573 upgd conss, 144257 impls, 7410 clqs
(round 9, fast)       84552 del vars, 96898 del conss, 52 add conss, 53396 chg bounds, 49 chg sides, 461 chg coeffs, 153573 upgd conss, 144257 impls, 7410 clqs
(round 10, exhaustive) 84554 del vars, 96901 del conss, 52 add conss, 53616 chg bounds, 49 chg sides, 461 chg coeffs, 166316 upgd conss, 144257 impls, 7410 clqs
(round 11, medium)     84576 del vars, 109627 del conss, 51136 add conss, 53616 chg bounds, 49 chg sides, 461 chg coeffs, 166316 upgd conss, 144257 impls, 58469 clqs
   (55.6s) probing: 1000/69470 (1.4%) - 0 fixings, 0 aggregations, 284012 implications, 0 bound changes
   (55.6s) probing: 1001/69470 (1.4%) - 0 fixings, 0 aggregations, 284184 implications, 0 bound changes
   (55.6s) probing aborted: 1000/1000 successive useless probings
presolving (12 rounds: 12 fast, 6 medium, 4 exhaustive):
 84594 deleted vars, 109670 deleted constraints, 51136 added constraints, 53635 tightened bounds, 0 added holes, 53 changed sides, 461 changed coefficients
 409588 implications, 124024 cliques
presolved problem has 128150 variables (69469 bin, 58314 int, 367 impl, 0 cont) and 183709 constraints
 116722 constraints of type <varbound>
  12960 constraints of type <knapsack>
  51218 constraints of type <setppc>
   2806 constraints of type <linear>
      3 constraints of type <logicor>
transformed objective value is always integral (scale: 1)
Presolving Time: 55.95

 time | node  | left  |LP iter|LP it/n|mem/heur|mdpt |vars |cons |rows |cuts |sepa|confs|strbr|  dualbound   | primalbound  |  gap   | compl. 
t58.6s|     1 |     0 |     0 |     - | trivial|   0 | 128k| 183k|   0 |   0 |  0 |   0 |   0 |-5.311800e+05 | 9.934000e+03 |    Inf | unknown
p83.0s|     1 |     0 |  1890 |     - | vbounds|   0 | 128k| 183k| 183k|   0 |  0 |   5 |   0 |-5.311800e+05 | 9.759000e+03 |    Inf | unknown
i84.5s|     1 |     0 |  1890 |     - |  oneopt|   0 | 128k| 183k| 183k|   0 |  0 |  39 |   0 |-5.311800e+05 | 9.747000e+03 |    Inf | unknown
  282s|     1 |     0 | 63055 |     - |  1355M |   0 | 128k| 183k| 183k|   0 |  0 |  39 |   0 | 4.250000e+03 | 9.747000e+03 | 129.34%| unknown
  512s|     1 |     0 |115667 |     - |  1398M |   0 | 128k| 183k| 183k|  26 |  1 |  40 |   0 | 4.250000e+03 | 9.747000e+03 | 129.34%| unknown
  732s|     1 |     0 |163831 |     - |  1418M |   0 | 128k| 183k| 183k|  41 |  2 |  41 |   0 | 4.250000e+03 | 9.747000e+03 | 129.34%| unknown
  894s|     1 |     0 |204209 |     - |  1440M |   0 | 128k| 183k| 183k|  77 |  3 |  42 |   0 | 4.250000e+03 | 9.747000e+03 | 129.34%| unknown
 1119s|     1 |     0 |240863 |     - |  1461M |   0 | 128k| 183k| 183k| 109 |  4 |  43 |   0 | 4.250000e+03 | 9.747000e+03 | 129.34%| unknown
 1265s|     1 |     0 |266173 |     - |  1482M |   0 | 128k| 183k| 183k| 151 |  5 |  44 |   0 | 4.250000e+03 | 9.747000e+03 | 129.34%| unknown
 1410s|     1 |     0 |288839 |     - |  1504M |   0 | 128k| 183k| 183k| 181 |  6 |  45 |   0 | 4.250000e+03 | 9.747000e+03 | 129.34%| unknown
 1559s|     1 |     0 |313144 |     - |  1524M |   0 | 128k| 183k| 183k| 232 |  7 |  46 |   0 | 4.250000e+03 | 9.747000e+03 | 129.34%| unknown
 1712s|     1 |     0 |344760 |     - |  1545M |   0 | 128k| 183k| 183k| 290 |  8 |  47 |   0 | 4.250000e+03 | 9.747000e+03 | 129.34%| unknown
 1950s|     1 |     0 |380843 |     - |  1566M |   0 | 128k| 183k| 184k| 328 |  9 |  48 |   0 | 4.250000e+03 | 9.747000e+03 | 129.34%| unknown
 2088s|     1 |     0 |405796 |     - |  1588M |   0 | 128k| 183k| 184k| 375 | 10 |  49 |   0 | 4.250000e+03 | 9.747000e+03 | 129.34%| unknown
 2608s|     1 |     0 |477879 |     - |  1608M |   0 | 128k| 183k| 184k| 391 | 11 |  50 |   0 | 4.250000e+03 | 9.747000e+03 | 129.34%| unknown
 time | node  | left  |LP iter|LP it/n|mem/heur|mdpt |vars |cons |rows |cuts |sepa|confs|strbr|  dualbound   | primalbound  |  gap   | compl. 
L6834s|     1 |     0 |941698 |     - |    alns|   0 | 128k| 183k| 184k| 391 | 11 |  82 |   0 | 4.250000e+03 | 9.603000e+03 | 125.95%| unknown
L6834s|     1 |     0 |941698 |     - |    alns|   0 | 128k| 183k| 184k| 391 | 11 |  82 |   0 | 4.250000e+03 | 9.595000e+03 | 125.76%| unknown
L6834s|     1 |     0 |941698 |     - |    alns|   0 | 128k| 183k| 184k| 391 | 11 |  82 |   0 | 4.250000e+03 | 9.550000e+03 | 124.71%| unknown
 6834s|     1 |     0 |941698 |     - |  1647M |   0 | 128k| 183k| 184k| 391 | 11 |  82 |   0 | 4.250000e+03 | 9.550000e+03 | 124.71%| unknown
i6847s|     1 |     0 |953269 |     - |  oneopt|   0 | 128k| 183k| 184k| 391 | 11 |  82 |   0 | 4.250000e+03 | 9.544000e+03 | 124.56%| unknown
 7040s|     1 |     0 |980785 |     - |  1671M |   0 | 128k| 183k| 184k| 408 | 12 |  83 |   0 | 4.250000e+03 | 9.544000e+03 | 124.56%| unknown
 7151s|     1 |     0 |996771 |     - |  1673M |   0 | 128k| 183k| 184k| 409 | 13 |  84 |   0 | 4.250000e+03 | 9.544000e+03 | 124.56%| unknown
 7200s|     1 |     2 |996771 |     - |  1675M |   0 | 128k| 183k| 184k| 409 | 13 |  85 |   9 | 4.250000e+03 | 9.544000e+03 | 124.56%| unknown

SCIP Status        : solving was interrupted [time limit reached]
Solving Time (sec) : 7200.09
Solving Nodes      : 1
Primal Bound       : +9.54400000000000e+03 (7 solutions)
Dual Bound         : +4.25000000000001e+03
Gap                : 124.56 %
SCIP Status        : solving was interrupted [time limit reached]
Total Time         :    7201.86
  solving          :    7200.09
  presolving       :      55.95 (included in solving)
  reading          :       1.77
  copying          :       1.46 (2 #copies) (minimal 0.73, maximal 0.73, average 0.73)
Original Problem   :
  Problem name     : seqsolve1
  Variables        : 207665 (123834 binary, 82835 integer, 0 implicit integer, 996 continuous)
  Constraints      : 242243 initial, 242243 maximal
  Objective        : minimize, 498 non-zeros (abs.min = 1, abs.max = 1)
Presolved Problem  :
  Problem name     : t_seqsolve1
  Variables        : 128150 (69469 binary, 58314 integer, 367 implicit integer, 0 continuous)
  Constraints      : 183709 initial, 183794 maximal
  Objective        : minimize, 62261 non-zeros (abs.min = 1, abs.max = 4)
  Nonzeros         : 702868 constraint, 435029 clique table
Presolvers         :   ExecTime  SetupTime  Calls  FixedVars   AggrVars   ChgTypes  ChgBounds   AddHoles    DelCons    AddCons   ChgSides   ChgCoefs
  boundshift       :       0.00       0.00      0          0          0          0          0          0          0          0          0          0
  convertinttobin  :       0.00       0.00      0          0          0          0          0          0          0          0          0          0
  domcol           :       0.31       0.00      1          0          0          0          0          0          0          0          0          0
  dualagg          :       0.00       0.00      0          0          0          0          0          0          0          0          0          0
  dualcomp         :       0.00       0.00      0          0          0          0          0          0          0          0          0          0
  dualinfer        :       0.00       0.00      0          0          0          0          0          0          0          0          0          0
  dualsparsify     :       1.03       0.00      1          0          0          0          0          0          0          0          0          0
  gateextraction   :       0.12       0.00      2          0          0          0          0          0          0          0          0          0
  implics          :       0.04       0.00      6          0          0          0          0          0          0          0          0          0
  inttobinary      :       0.02       0.00     12          0          0          0          0          0          0          0          0          0
  qpkktref         :       0.00       0.00      0          0          0          0          0          0          0          0          0          0
  redvub           :       0.00       0.00      0          0          0          0          0          0          0          0          0          0
  sparsify         :       0.39       0.00      1          0          0          0          0          0          0          0          0          0
  stuffing         :       0.00       0.00      0          0          0          0          0          0          0          0          0          0
  trivial          :       0.12       0.00     12       5083          0          0          0          0          0          0          0          0
  tworowbnd        :       0.00       0.00      0          0          0          0          0          0          0          0          0          0
  dualfix          :       0.10       0.00     12        127          0          0          0          0          0          0          0          0
  genvbounds       :       0.00       0.00      0          0          0          0          0          0          0          0          0          0
  probing          :      48.45       0.01      1          0          0          0          0          0          0          0          0          0
  pseudoobj        :       0.00       0.00      0          0          0          0          0          0          0          0          0          0
  symmetry         :       0.00       0.00      0          0          0          0          0          0          0          0          0          0
  vbounds          :       0.19       0.00      3          0          0          0          0          0          0          0          0          0
  varbound         :       0.44       0.00     10          0          0          0      10536          0      21088          0         16          0
  knapsack         :       0.75       0.02     12       2688          0          0          0          0      15404      51136          6        111
  setppc           :       0.27       0.01     12          0          0          0          0          0         57          0          0          0
  linear           :       2.56       0.23     16      52956      18661          0      43099          0      73121          0         31        350
  logicor          :       0.01       0.00     11          0          0          0          0          0          0          0          0          0
  bounddisjunction :       0.00       0.00      0          0          0          0          0          0          0          0          0          0
  benders          :       0.00       0.00      0          0          0          0          0          0          0          0          0          0
  components       :       0.25       0.00      1          0          0          0          0          0          0          0          0          0
  root node        :          -          -      -          0          -          -          0          -          -          -          -          -
Constraints        :     Number  MaxNumber  #Separate #Propagate    #EnfoLP    #EnfoRelax  #EnfoPS    #Check   #ResProp    Cutoffs    DomReds       Cuts    Applied      Conss   Children
  benderslp        :          0          0          0          0          1          0          0         30          0          0          0          0          0          0          0
  integral         :          0          0          0          0          1          0          0         30          0          0          0          0          0          0          2
  varbound         :     116722     116722         12     134219          0          0          0          9         23         16          0          0          0          0          0
  knapsack         :      12960+     12961         12     134204          0          0          0          7        204         25          0        149         77          0          0
  setppc           :      51218+     51228         12     134160          0          0          0          7         61         51          0          0          0          0          0
  linear           :       2806       2806         12     134128          0          0          0          7          3          2          0         40         16          0          0
  logicor          :          3+        61         12        105          0          0          0          7         11          1          0          0          0          0          0
  bounddisjunction :          0+        16          0         50          0          0          0          0          0          0          0          0          0          0          0
  benders          :          0          0          0          0          0          0          0          8          0          0          0          0          0          0          0
  countsols        :          0          0          0          0          0          0          0          8          0          0          0          0          0          0          0
  components       :          0          0          0          0          0          0          0          0          0          0          0          0          0          0          0
Constraint Timings :  TotalTime  SetupTime   Separate  Propagate     EnfoLP     EnfoPS     EnfoRelax   Check    ResProp    SB-Prop
  benderslp        :       0.00       0.00       0.00       0.00       0.00       0.00       0.00       0.00       0.00       0.00
  integral         :      48.97       0.00       0.00       0.00      48.85       0.00       0.00       0.12       0.00       0.00
  varbound         :       1.91       0.00       0.62       1.13       0.00       0.00       0.00       0.17       0.00       0.00
  knapsack         :       9.89       0.02       0.39       9.41       0.00       0.00       0.00       0.08       0.00       0.00
  setppc           :       4.54       0.01       0.10       4.35       0.00       0.00       0.00       0.07       0.00       0.00
  linear           :       5.58       0.23       3.98       1.27       0.00       0.00       0.00       0.09       0.00       0.00
  logicor          :       0.00       0.00       0.00       0.00       0.00       0.00       0.00       0.00       0.00       0.00
  bounddisjunction :       0.00       0.00       0.00       0.00       0.00       0.00       0.00       0.00       0.00       0.00
  benders          :       0.00       0.00       0.00       0.00       0.00       0.00       0.00       0.00       0.00       0.00
  countsols        :       0.00       0.00       0.00       0.00       0.00       0.00       0.00       0.00       0.00       0.00
  components       :       0.01       0.00       0.00       0.01       0.00       0.00       0.00       0.00       0.00       0.00
Propagators        : #Propagate   #ResProp    Cutoffs    DomReds
  dualfix          :          3          0          0          0
  genvbounds       :          0          0          0          0
  nlobbt           :          0          0          0          0
  obbt             :          0          0          0          0
  probing          :          0          0          0          0
  pseudoobj        :         20          0          0          0
  redcost          :         17          0          0          0
  rootredcost      :          0          0          0          0
  symmetry         :          0          0          0          0
  vbounds          :      89140          0          0          0
Propagator Timings :  TotalTime  SetupTime   Presolve  Propagate    ResProp    SB-Prop
  dualfix          :       0.12       0.00       0.10       0.02       0.00       0.00
  genvbounds       :       0.01       0.00       0.00       0.01       0.00       0.00
  nlobbt           :       0.00       0.00       0.00       0.00       0.00       0.00
  obbt             :       0.00       0.00       0.00       0.00       0.00       0.00
  probing          :      48.46       0.01      48.45       0.00       0.00       0.00
  pseudoobj        :       1.45       0.00       0.00       1.45       0.00       0.00
  redcost          :       0.17       0.00       0.00       0.17       0.00       0.00
  rootredcost      :       0.01       0.00       0.00       0.01       0.00       0.00
  symmetry         :       0.01       0.00       0.00       0.01       0.00       0.00
  vbounds          :       0.38       0.00       0.19       0.19       0.00       0.00
Conflict Analysis  :       Time      Calls    Success    DomReds  Conflicts   Literals    Reconvs ReconvLits   Dualrays   Nonzeros   LP Iters   (pool size: [10000,10000])
  propagation      :       0.00         82         81          -        137        4.6          0        0.0          -          -          -
  infeasible LP    :       0.04          1          1          -          1        3.0          0        0.0          1       84.0          0
  bound exceed. LP :       0.00          0          0          -          0        0.0          0        0.0          0        0.0          0
  strong branching :       0.00          0          0          -          0        0.0          0        0.0          -          -          0
  pseudo solution  :       0.00          0          0          -          0        0.0          0        0.0          -          -          -
  applied globally :       0.07          -          -          0         84        3.8          -          -          1          -          -
  applied locally  :          -          -          -          0          0        0.0          -          -          0          -          -
Separators         :   ExecTime  SetupTime      Calls  RootCalls    Cutoffs    DomReds  FoundCuts ViaPoolAdd  DirectAdd    Applied ViaPoolApp  DirectApp      Conss
  cut pool         :       0.02          -         24         24          -          -       2230        712          -          -          -          -          -    (maximal pool size:       2230)
  aggregation      :       1.34       0.00         12         12          0          0          0          0          0          0          0          0          0
  > cmir           :          -          -          -          -          -          -          -          0          0          0          0          0          -
  > flowcover      :          -          -          -          -          -          -          -          0          0          0          0          0          -
  > knapsackcover  :          -          -          -          -          -          -          -          0          0          0          0          0          -
  cgmip            :       0.00       0.00          0          0          0          0          0          0          0          0          0          0          0
  clique           :      39.34       0.00         12         12          0          0         11          4          0          4          4          0          0
  closecuts        :       0.00       0.00          0          0          0          0          0          0          0          0          0          0          0
  convexproj       :       0.00       0.00          0          0          0          0          0          0          0          0          0          0          0
  disjunctive      :       0.00       0.00          0          0          0          0          0          0          0          0          0          0          0
  eccuts           :       0.00       0.00          0          0          0          0          0          0          0          0          0          0          0
  gauge            :       0.00       0.00          0          0          0          0          0          0          0          0          0          0          0
  gomory           :       3.63       0.00         10         10          0          0       2004        534          0        162        162          0          0
  > gomorymi       :          -          -          -          -          -          -          -        287          0        103        103          0          -
  > strongcg       :          -          -          -          -          -          -          -        247          0         59         59          0          -
  impliedbounds    :       0.32       0.00         12         12          0          0         53         18          0         11         11          0          0
  interminor       :       0.00       0.00          0          0          0          0          0          0          0          0          0          0          0
  intobj           :       0.00       0.00          0          0          0          0          0          0          0          0          0          0          0
  mcf              :       0.18       0.00          1          1          0          0          0          0          0          0          0          0          0
  minor            :       0.00       0.00          0          0          0          0          0          0          0          0          0          0          0
  mixing           :       0.00       0.00         12         12          0          0          0          0          0          0          0          0          0
  oddcycle         :       0.00       0.00          0          0          0          0          0          0          0          0          0          0          0
  rapidlearning    :       0.20       0.00          0          0          0          0          0          0          0          0          0          0          0
  rlt              :       0.00       0.00         10         10          0          0          0          0          0          0          0          0          0
  zerohalf         :       2.80       0.00         12         12          0          0        162        156          0        139        139          0          0
Cutselectors       :   ExecTime  SetupTime      Calls  RootCalls   Selected     Forced   Filtered  RootSelec   RootForc   RootFilt 
  hybrid           :       0.00       0.00         13         13        409          0        492        409          0        492
Pricers            :   ExecTime  SetupTime      Calls       Vars
  problem variables:       0.00          -          0          0
Branching Rules    :   ExecTime  SetupTime   BranchLP  BranchExt   BranchPS    Cutoffs    DomReds       Cuts      Conss   Children
  allfullstrong    :       0.00       0.00          0          0          0          0          0          0          0          0
  cloud            :       0.00       0.00          0          0          0          0          0          0          0          0
  distribution     :       0.00       0.00          0          0          0          0          0          0          0          0
  fullstrong       :       0.00       0.00          0          0          0          0          0          0          0          0
  inference        :       0.00       0.00          0          0          0          0          0          0          0          0
  leastinf         :       0.00       0.00          0          0          0          0          0          0          0          0
  lookahead        :       0.00       0.00          0          0          0          0          0          0          0          0
  mostinf          :       0.00       0.00          0          0          0          0          0          0          0          0
  multaggr         :       0.00       0.00          0          0          0          0          0          0          0          0
  nodereopt        :       0.00       0.00          0          0          0          0          0          0          0          0
  pscost           :       0.00       0.00          0          0          0          0          0          0          0          0
  random           :       0.00       0.00          0          0          0          0          0          0          0          0
  relpscost        :      48.85       0.00          1          0          0          0          0          0          0          2
  vanillafullstrong:       0.00       0.00          0          0          0          0          0          0          0          0
Primal Heuristics  :   ExecTime  SetupTime      Calls      Found       Best
  LP solutions     :       0.00          -          -          0          0
  relax solutions  :       0.00          -          -          0          0
  pseudo solutions :       0.00          -          -          0          0
  strong branching :       0.00          -          -          0          0
  actconsdiving    :       0.00       0.00          0          0          0
  adaptivediving   :       0.00       0.00          0          0          0
  alns             :       2.79       0.00          1          3          3
  bound            :       0.00       0.00          0          0          0
  clique           :      22.61       0.00          1          0          0
  coefdiving       :       0.00       0.00          0          0          0
  completesol      :       0.00       0.00          0          0          0
  conflictdiving   :    1211.96       0.00          1          0          0
  crossover        :       0.00       0.00          0          0          0
  dins             :       0.00       0.00          0          0          0
  distributiondivin:       0.00       0.00          0          0          0
  dps              :       0.00       0.00          0          0          0
  dualval          :       0.00       0.00          0          0          0
  farkasdiving     :    2914.88       0.00          1          0          0
  feaspump         :      93.91       0.00          1          0          0
  fixandinfer      :       0.00       0.00          0          0          0
  fracdiving       :       0.00       0.00          0          0          0
  gins             :       0.00       0.00          0          0          0
  guideddiving     :       0.00       0.00          0          0          0
  indicator        :       0.00       0.00          0          0          0
  intdiving        :       0.00       0.00          0          0          0
  intshifting      :       0.00       0.00          0          0          0
  linesearchdiving :       0.00       0.00          0          0          0
  localbranching   :       0.00       0.00          0          0          0
  locks            :       0.72       0.00          1          0          0
  lpface           :       0.00       0.00          0          0          0
  mpec             :       0.00       0.00          0          0          0
  multistart       :       0.00       0.00          0          0          0
  mutation         :       0.00       0.00          0          0          0
  nlpdiving        :       0.00       0.00          0          0          0
  objpscostdiving  :       0.00       0.00          0          0          0
  octane           :       0.00       0.00          0          0          0
  ofins            :       0.00       0.00          0          0          0
  oneopt           :      12.51       0.00          2          2          2
  padm             :       0.00       0.00          0          0          0
  proximity        :       0.00       0.00          0          0          0
  pscostdiving     :       0.00       0.00          0          0          0
  randrounding     :       4.50       0.00         15          0          0
  rens             :       1.97       0.00          1          0          0
  reoptsols        :       0.00       0.00          0          0          0
  repair           :       0.00       0.00          0          0          0
  rins             :       0.00       0.00          0          0          0
  rootsoldiving    :       0.00       0.00          0          0          0
  rounding         :       0.19       0.00         15          0          0
  shiftandpropagate:       0.00       0.00          0          0          0
  shifting         :       1.83       0.00         15          0          0
  simplerounding   :       0.01       0.00         15          0          0
  subnlp           :       0.00       0.00          0          0          0
  trivial          :       0.60       0.00          2          1          1
  trivialnegation  :       0.00       0.00          0          0          0
  trustregion      :       0.00       0.00          0          0          0
  trysol           :       0.00       0.00          0          0          0
  twoopt           :       0.00       0.00          0          0          0
  undercover       :       0.00       0.00          0          0          0
  vbounds          :       2.43       0.00          1          1          1
  veclendiving     :       0.00       0.00          0          0          0
  zeroobj          :       0.00       0.00          0          0          0
  zirounding       :       0.02       0.00          1          0          0
  other solutions  :          -          -          -          0          -
LP                 :       Time      Calls Iterations  Iter/call   Iter/sec  Time-0-It Calls-0-It    ItLimit
  primal LP        :       0.00          0          0       0.00          -       0.00          0
  dual LP          :    2766.73         14     519491   37106.50     187.76       0.00          0
  lex dual LP      :       0.00          0          0       0.00          -
  barrier LP       :       0.00          0          0       0.00          -       0.00          0
  resolve instable :       0.00          0          0       0.00          -
  diving/probing LP:    4205.73         39     477280   12237.95     113.48
  strong branching :      48.60          9       6480     720.00     133.34          -          -         12
    (at root node) :          -          9       6480     720.00          -
  conflict analysis:       0.00          0          0       0.00          -
B&B Tree           :
  number of runs   :          1
  nodes            :          1 (1 internal, 0 leaves)
  feasible leaves  :          0
  infeas. leaves   :          0
  objective leaves :          0
  nodes (total)    :          1 (1 internal, 0 leaves)
  nodes left       :          2
  max depth        :          0
  max depth (total):          0
  backtracks       :          0 (0.0%)
  early backtracks :          0 (0.0%)
  nodes exc. ref.  :          0 (0.0%)
  delayed cutoffs  :          0
  repropagations   :          0 (0 domain reductions, 0 cutoffs)
  avg switch length:       1.00
  switching time   :       0.00
Root Node          :
  First LP value   : +4.25000000000000e+03
  First LP Iters   :      61165 (309.71 Iter/sec)
  First LP Time    :     197.49
  Final Dual Bound : +4.25000000000001e+03
  Final Root Iters :     531062
  Root LP Estimate :                     -
Solution           :
  Solutions found  :          7 (7 improvements)
  First Solution   : +9.93400000000000e+03   (in run 1, after 1 nodes, 58.43 seconds, depth 0, found by <trivial>)
  Gap First Sol.   :   infinite
  Gap Last Sol.    :     124.56 %
  Primal Bound     : +9.54400000000000e+03   (in run 1, after 1 nodes, 6846.59 seconds, depth 0, found by <oneopt>)
  Dual Bound       : +4.25000000000001e+03
  Gap              :     124.56 %
Integrals          :      Total       Avg%
  primal-dual      :  418020.30      58.06
  primal-ref       :          -          - (not evaluated)
  dual-ref         :          -          - (not evaluated)
written solution information to file <results/final_miplib_symretope_if_extended_generating_set_cpx_v802__settings_final_nosym_norestarts__0__seqsolve1.mps.gz.sol>
@04 1686656464
